TOUR_SECTION
1
35
169
119
160
167
89
154
74
106
132
94
159
123
84
151
128
54
39
22
70
130
14
190
63
86
155
153
91
49
189
77
107
163
47
60
173
141
134
61
28
137
138
148
26
171
65
142
34
41
10
53
164
82
122
136
186
127
27
56
76
37
42
64
194
17
21
51
13
121
113
143
98
114
58
165
30
5
45
15
109
124
31
180
83
174
193
191
199
23
115
44
198
175
181
25
8
192
20
40
68
100
158
101
187
166
11
177
196
178
32
72
201
110
29
102
18
99
120
95
12
48
73
57
16
78
117
162
46
36
112
3
87
96
104
88
161
126
79
75
200
185
152
118
133
146
197
157
176
195
139
188
81
184
111
103
92
33
183
90
38
172
105
66
168
108
55
71
149
170
93
6
129
19
24
43
2
97
125
140
135
50
62
67
85
182
80
116
147
69
52
59
131
150
145
144
179
4
7
156
9
-1
EOF